SPARKNaCl/why3-cvc5/sparknacl-hashing-rfsb509.adb_133_16_initialization2_1.smt2
;; produced by cvc5.drv ;;
(set-logic ALL)
(set-info :smt-lib-version 2.6)
;;; generated by SMT-LIB2 driver
;;; SMT-LIB2 driver: bit-vectors, common part
;;; SMT-LIB2: integer arithmetic
;; "lsr"
(declare-fun lsr ((_ BitVec 8)
  Int) (_ BitVec 8))

;; "lsl"
(declare-fun lsl ((_ BitVec 8)
  Int) (_ BitVec 8))

;; "pow2"
(declare-fun pow2 (Int) Int)

(declare-const two_power_size_minus_one Int)

;; "two_power_size_minus_one_val"
(assert (= two_power_size_minus_one (pow2 (- 8 1))))

;; "lsr_bv_is_lsr"
(assert
  (forall ((x (_ BitVec 8)) (n (_ BitVec 8)))
    (= (bvlshr x n) (lsr x (bv2nat n)))))

;; "lsl_bv_is_lsl"
(assert
  (forall ((x (_ BitVec 8)) (n (_ BitVec 8)))
    (= (bvshl x n) (lsl x (bv2nat n)))))

;; "min"
(define-fun min ((x Int) (y Int)) Int
  (ite (<= x y) x y))

;; "max"
(define-fun max ((x Int) (y Int)) Int
  (ite (<= x y) y x))

;; "Min_r"
(assert (forall ((x Int) (y Int)) (=> (<= y x) (= (min x y) y))))

;; "Max_l"
(assert (forall ((x Int) (y Int)) (=> (<= y x) (= (max x y) x))))

;; "Min_comm"
(assert (forall ((x Int) (y Int)) (= (min x y) (min y x))))

;; "Max_comm"
(assert (forall ((x Int) (y Int)) (= (max x y) (max y x))))

;; "Min_assoc"
(assert
  (forall ((x Int) (y Int) (z Int)) (= (min (min x y) z) (min x (min y z)))))

;; "Max_assoc"
(assert
  (forall ((x Int) (y Int) (z Int)) (= (max (max x y) z) (max x (max y z)))))

;; "in_range"
(define-fun in_range ((x Int)) Bool
  (and (<= (- 2147483648) x) (<= x 2147483647)))

(declare-sort byte 0)

;; "to_rep"
(declare-fun to_rep (byte) (_ BitVec 8))

;; "of_rep"
(declare-fun of_rep ((_ BitVec 8)) byte)

;; "inversion_axiom"
(assert
  (forall ((x byte)) (! (= (of_rep (to_rep x)) x) :pattern ((to_rep x)) )))

;; "range_axiom"
(assert true)

;; "coerce_axiom"
(assert
  (forall ((x (_ BitVec 8)))
    (! (= (to_rep (of_rep x)) x) :pattern ((to_rep (of_rep x))) )))

(declare-sort map1 0)

;; "has_bounds"
(declare-fun has_bounds (map1
  Int
  Int) Bool)

;; "get"
(declare-fun get (map1
  Int) byte)

(declare-const three_msb_mask (_ BitVec 8))

(declare-const exponent Int)

(declare-const shift_amount Int)

(declare-datatypes ((byte__init_wrapper 0))
  (((byte__init_wrapperqtmk (rec__value byte)(us_attr__init Bool)))))

(declare-sort map2 0)

;; "has_bounds"
(declare-fun has_bounds1 (map2
  Int
  Int) Bool)

;; "get"
(declare-fun get1 (map2
  Int) byte__init_wrapper)

;; "set"
(declare-fun set (map2
  Int
  byte__init_wrapper) map2)

;; "set_eq"
(assert
  (forall ((a map2) (i Int) (v byte__init_wrapper))
    (! (= (get1 (set a i v) i) v) :pattern ((set a i v)) )))

;; "set_neq"
(assert
  (forall ((a map2) (i Int) (v byte__init_wrapper))
    (! (forall ((j Int))
         (! (=> (not (= i j)) (= (get1 (set a i v) j) (get1 a j))) :pattern (
         (get1
           a
           j)) :pattern ((get1 (set a i v) j)) )) :pattern ((set a i v)) )))

;; "set_has_bounds"
(assert
  (forall ((a map2) (i Int) (f Int) (l Int) (v byte__init_wrapper))
    (! (=>
         (and (<= f i) (<= i l))
         (=> (has_bounds1 a f l) (has_bounds1 (set a i v) f l))) :pattern (
    (has_bounds1
      (set a i v)
      f
      l)) )))

;; "slice"
(declare-fun slice (map2
  Int
  Int) map2)

;; "slice_eq"
(assert
  (forall ((a map2) (f Int) (l Int))
    (! (=> (has_bounds1 a f l) (= (slice a f l) a)) :pattern ((slice a f l)
    (has_bounds1 a f l)) )))

;; "slice_slice"
(assert
  (forall ((a map2) (f1 Int) (l1 Int) (f2 Int) (l2 Int))
    (! (=>
         (and (<= f1 f2) (<= l2 l1))
         (= (slice (slice a f1 l1) f2 l2) (slice a f2 l2))) :pattern (
    (slice
      (slice a f1 l1)
      f2
      l2)) )))

;; "slice_def"
(assert
  (forall ((a map2) (f Int) (l Int))
    (! (forall ((i Int))
         (! (=>
              (and (<= f i) (<= i l))
              (= (get1 (slice a f l) i) (get1 a i))) :pattern ((get1
                                                                 (slice
                                                                   a
                                                                   f
                                                                   l)
                                                                 i)) :pattern (
         (get1
           a
           i)) )) :pattern ((slice a f l)) )))

;; "slice_has_bounds"
(assert
  (forall ((a map2) (f Int) (l Int))
    (! (has_bounds1 (slice a f l) f l) :pattern ((has_bounds1
                                                   (slice a f l)
                                                   f
                                                   l)) )))

(declare-const factor_pivot Int)

(declare-const product_pivot Int)

(declare-sort tinteger_32B 0)

;; "tinteger_32B'int"
(declare-fun tinteger_32Bqtint (tinteger_32B) Int)

;; "tinteger_32B'axiom"
(assert
  (forall ((i tinteger_32B))
    (and
      (<= (- 2147483648) (tinteger_32Bqtint i))
      (<= (tinteger_32Bqtint i) 2147483647))))

;; "in_range"
(define-fun in_range1 ((x Int)) Bool
  (and (<= (- 2147483648) x) (<= x 2147483647)))

;; "in_range"
(define-fun in_range2 ((x Int)) Bool
  (and (<= 0 x) (<= x 63)))

;; "dynamic_invariant"
(define-fun dynamic_invariant ((temp___expr_371 map1) (temp___is_init_367 Bool) (temp___skip_constant_368 Bool) (temp___do_toplevel_369 Bool) (temp___do_typ_inv_370 Bool)) Bool
  (and
    (=>
      (= temp___is_init_367 true)
      (=>
        (= temp___do_toplevel_369 true)
        (= (bvand (to_rep (get temp___expr_371 63)) #xE0) #x00)))
    (has_bounds temp___expr_371 0 63)))

;; "to_rep"
(define-fun to_rep1 ((x tinteger_32B)) Int
  (tinteger_32Bqtint x))

;; "of_rep"
(declare-fun of_rep1 (Int) tinteger_32B)

;; "inversion_axiom"
(assert
  (forall ((x tinteger_32B))
    (! (= (of_rep1 (to_rep1 x)) x) :pattern ((to_rep1 x)) )))

;; "range_axiom"
(assert
  (forall ((x tinteger_32B))
    (! (in_range1 (to_rep1 x)) :pattern ((to_rep1 x)) )))

;; "coerce_axiom"
(assert
  (forall ((x Int))
    (! (=> (in_range1 x) (= (to_rep1 (of_rep1 x)) x)) :pattern ((to_rep1
                                                                  (of_rep1 x))) )))

(declare-datatypes ((t 0))
  (((tqtmk (rec__first tinteger_32B)(rec__last tinteger_32B)))))

;; "mk"
(declare-fun mk (Int
  Int) t)

;; "mk_def"
(assert
  (forall ((f Int) (l Int))
    (! (=>
         (in_range1 f)
         (=>
           (in_range1 l)
           (and
             (= (to_rep1 (rec__first (mk f l))) f)
             (= (to_rep1 (rec__last (mk f l))) l)))) :pattern ((mk f l)) )))

(declare-datatypes ((us_t 0))
  (((us_tqtmk (elts map2)(rt t)))))

;; "of_array"
(define-fun of_array ((a map2) (f Int) (l Int)) us_t
  (us_tqtmk a (mk f l)))

;; Goal "def'vc"
;; File "sparknacl-hashing-rfsb509.adb", line 47, characters 0-0
(assert
  (not
  (forall ((a map1) (product1 map2))
    (=>
      (dynamic_invariant a true false true true)
      (=>
        (= #xE0 three_msb_mask)
        (=>
          (= 16 exponent)
          (=>
            (in_range2 exponent)
            (=>
              (= 5 shift_amount)
              (=>
                (in_range shift_amount)
                (=>
                  (has_bounds1 product1 0 63)
                  (=>
                    (= 47 factor_pivot)
                    (=>
                      (in_range2 factor_pivot)
                      (=>
                        (= 16 product_pivot)
                        (=>
                          (in_range2 product_pivot)
                          (forall ((factor_index Int))
                            (=>
                              (= factor_index 47)
                              (=>
                                (in_range2 factor_index)
                                (forall ((product_index Int))
                                  (=>
                                    (= product_index 0)
                                    (=>
                                      (in_range2 product_index)
                                      (forall ((o (_ BitVec 8)))
                                        (=>
                                          (= (to_rep (get a factor_index)) o)
                                          (forall ((current_byte (_ BitVec 8)))
                                            (=>
                                              (= current_byte o)
                                              (forall ((o1 (_ BitVec 8)))
                                                (=>
                                                  (ite (< 5 8)
                                                    (= o1 (bvlshr current_byte ((_ int2bv 8) 5)))
                                                    (= o1 #x00))
                                                  (forall ((lower_part (_ BitVec 8)))
                                                    (=>
                                                      (= lower_part o1)
                                                      (forall ((o2 byte))
                                                        (=>
                                                          (= (to_rep o2) lower_part)
                                                          (forall ((product2 map2))
                                                            (=>
                                                              (= product2 
                                                              (set
                                                                product1
                                                                product_index
                                                                (byte__init_wrapperqtmk
                                                                  o2
                                                                  true)))
                                                              (=>
                                                                (not
                                                                  (= factor_index 2147483647))
                                                                (let ((o3 (+ factor_index 1)))
                                                                  (=>
                                                                    (in_range2
                                                                    o3)
                                                                    (forall 
                                                                    ((factor_index1 Int))
                                                                    (=>
                                                                    (= factor_index1 o3)
                                                                    (=>
                                                                    (< product_index 16)
                                                                    (let ((temp___800 
                                                                    (get1
                                                                    product2
                                                                    product_index)))
                                                                    (=>
                                                                    (= 
                                                                    (us_attr__init
                                                                    temp___800) true)
                                                                    (forall 
                                                                    ((o4 (_ BitVec 8)))
                                                                    (=>
                                                                    (= 
                                                                    (to_rep
                                                                    (rec__value
                                                                    temp___800)) o4)
                                                                    (=>
                                                                    (=>
                                                                    (<= 0 product_index)
                                                                    (and
                                                                    (and
                                                                    (<= 0 0)
                                                                    (<= 0 63))
                                                                    (and
                                                                    (<= 0 product_index)
                                                                    (<= product_index 63))))
                                                                    (forall 
                                                                    ((product3 map2) (factor_index2 Int) (product_index1 Int))
                                                                    (=>
                                                                    (and
                                                                    (and
                                                                    (= (- factor_index2 product_index1) 48)
                                                                    (forall 
                                                                    ((temp___805 Int))
                                                                    (=>
                                                                    (and
                                                                    (<= 0 temp___805)
                                                                    (<= temp___805 product_index1))
                                                                    (= 
                                                                    (us_attr__init
                                                                    (get1
                                                                    (slice
                                                                    product3
                                                                    0
                                                                    product_index1)
                                                                    temp___805)) true))))
                                                                    (= (bvand 
                                                                    (to_rep
                                                                    (rec__value
                                                                    (get1
                                                                    product3
                                                                    product_index1))) #xF8) #x00))
                                                                    (=>
                                                                    (= (and 
                                                                    (ite 
                                                                    (and
                                                                    (and
                                                                    (has_bounds1
                                                                    product3
                                                                    0
                                                                    63)
                                                                    (in_range2
                                                                    factor_index2))
                                                                    (in_range2
                                                                    product_index1))
                                                                    true
                                                                    false) 
                                                                    (ite (< product_index1 16)
                                                                    true
                                                                    false)) true)
                                                                    (forall 
                                                                    ((o5 (_ BitVec 8)))
                                                                    (=>
                                                                    (= 
                                                                    (to_rep
                                                                    (get
                                                                    a
                                                                    factor_index2)) o5)
                                                                    (forall 
                                                                    ((current_byte1 (_ BitVec 8)))
                                                                    (=>
                                                                    (= current_byte1 o5)
                                                                    (forall 
                                                                    ((o6 (_ BitVec 8)))
                                                                    (=>
                                                                    (ite (< 5 8)
                                                                    (= o6 (bvlshr current_byte1 ((_ int2bv 8) 5)))
                                                                    (= o6 #x00))
                                                                    (forall 
                                                                    ((lower_part1 (_ BitVec 8)))
                                                                    (=>
                                                                    (= lower_part1 o6)
                                                                    (forall 
                                                                    ((o7 (_ BitVec 8)))
                                                                    (=>
                                                                    (ite (< 3 8)
                                                                    (= o7 (bvshl current_byte1 ((_ int2bv 8) 3)))
                                                                    (= o7 #x00))
                                                                    (forall 
                                                                    ((upper_part (_ BitVec 8)))
                                                                    (=>
                                                                    (= upper_part o7)
                                                                    (let ((temp___775 
                                                                    (get1
                                                                    product3
                                                                    product_index1)))
                                                                    (=>
                                                                    (= 
                                                                    (us_attr__init
                                                                    temp___775) true)
                                                                    (forall 
                                                                    ((o8 (_ BitVec 8)))
                                                                    (=>
                                                                    (= 
                                                                    (to_rep
                                                                    (rec__value
                                                                    temp___775)) o8)
                                                                    (forall 
                                                                    ((o9 byte))
                                                                    (=>
                                                                    (= 
                                                                    (to_rep
                                                                    o9) (bvor o8 upper_part))
                                                                    (forall 
                                                                    ((product4 map2))
                                                                    (=>
                                                                    (= product4 
                                                                    (set
                                                                    product3
                                                                    product_index1
                                                                    (byte__init_wrapperqtmk
                                                                    o9
                                                                    true)))
                                                                    (=>
                                                                    (not
                                                                    (= product_index1 2147483647))
                                                                    (let ((o10 (+ product_index1 1)))
                                                                    (=>
                                                                    (in_range2
                                                                    o10)
                                                                    (forall 
                                                                    ((product_index2 Int))
                                                                    (=>
                                                                    (= product_index2 o10)
                                                                    (forall 
                                                                    ((o11 byte))
                                                                    (=>
                                                                    (= 
                                                                    (to_rep
                                                                    o11) lower_part1)
                                                                    (forall 
                                                                    ((product5 map2))
                                                                    (=>
                                                                    (= product5 
                                                                    (set
                                                                    product4
                                                                    product_index2
                                                                    (byte__init_wrapperqtmk
                                                                    o11
                                                                    true)))
                                                                    (=>
                                                                    (not
                                                                    (= product_index2 16))
                                                                    (=>
                                                                    (not
                                                                    (= factor_index2 2147483647))
                                                                    (let ((o12 (+ factor_index2 1)))
                                                                    (=>
                                                                    (in_range2
                                                                    o12)
                                                                    (forall 
                                                                    ((factor_index3 Int))
                                                                    (=>
                                                                    (= factor_index3 o12)
                                                                    (=>
                                                                    (< product_index2 16)
                                                                    (= 
                                                                    (us_attr__init
                                                                    (get1
                                                                    product5
                                                                    product_index2)) true)))))))))))))))))))))))))))))))))))))))))))))))))))))))))))))))))))))))))))))))))))

(check-sat)
